\ Model vert
\ LP format - for model browsing. Use MPS format to capture full model detail.
Minimize
  2.8264530111331833e+06 S_coef + 113132.7252884673 Constant + [
   3.5307364e+07 S_coef ^2 ] / 2 
Subject To
Bounds
 -1000 <= S_coef <= 1000
 Constant = 1
End
